
Gurobi 11.0.1 (win64) logging started Wed Mar 13 21:23:08 2024

Set parameter LogFile to value "res/logfile/atlanta-iplog.txt"
Gurobi Optimizer version 11.0.1 build v11.0.1rc0 (win64 - Windows 11.0 (22621.2))

CPU model: AMD Ryzen Threadripper PRO 5975WX 32-Cores, instruction set [SSE2|AVX|AVX2]
Thread count: 32 physical cores, 64 logical processors, using up to 10 threads

Optimize a model with 31940 rows, 48738 columns and 286623 nonzeros
Model fingerprint: 0x3f99c60c
Variable types: 1965 continuous, 46773 integer (46667 binary)
Coefficient statistics:
  Matrix range     [3e-02, 6e+01]
  Objective range  [1e-06, 2e+01]
  Bounds range     [1e+00, 1e+05]
  RHS range        [1e-01, 1e+05]
Presolve removed 14705 rows and 33568 columns
Presolve time: 0.72s
Presolved: 17235 rows, 15170 columns, 164772 nonzeros
Crushed 344 out of 8514 user cuts to presolved model
Variable types: 971 continuous, 14199 integer (14197 binary)
Deterministic concurrent LP optimizer: primal and dual simplex
Showing primal log only...

Concurrent spin time: 0.73s (can be avoided by choosing Method=3)

Solved with primal simplex

Root relaxation: objective 8.130985e+01, 13249 iterations, 2.79 seconds (4.31 work units)

    Nodes    |    Current Node    |     Objective Bounds      |     Work
 Expl Unexpl |  Obj  Depth IntInf | Incumbent    BestBd   Gap | It/Node Time

     0     0   81.30985    0 1386          -   81.30985      -     -    4s
     0     0   81.30985    0 1386          -   81.30985      -     -    4s
H    0     0                     168.0183449   81.31011  51.6%     -    5s
     0     0   81.46589    0 1466  168.01834   81.46589  51.5%     -    6s
H    0     0                     168.0165689   81.46589  51.5%     -    6s
H    0     0                     131.0097830   81.46589  37.8%     -    6s
     0     0   81.47458    0 1479  131.00978   81.47458  37.8%     -    6s
     0     0   81.80723    0 1465  131.00978   81.80723  37.6%     -    7s
     0     0   81.82843    0 1472  131.00978   81.82843  37.5%     -    7s
     0     0   81.97205    0 1484  131.00978   81.97205  37.4%     -    9s
H    0     0                      96.0100065   81.97229  14.6%     -    9s
     0     0   82.24499    0 1509   96.01001   82.24499  14.3%     -    9s
     0     0   82.24499    0 1544   96.01001   82.24499  14.3%     -   10s
     0     0   82.24499    0 1557   96.01001   82.24499  14.3%     -   11s
     0     0   82.24499    0 1327   96.01001   82.24499  14.3%     -   11s
     0     0   82.24499    0 1533   96.01001   82.24499  14.3%     -   11s
     0     0   82.24499    0 1514   96.01001   82.24499  14.3%     -   11s
     0     0   82.24499    0 1502   96.01001   82.24499  14.3%     -   11s
     0     0   82.24499    0 1509   96.01001   82.24499  14.3%     -   11s
     0     0   82.24499    0 1563   96.01001   82.24499  14.3%     -   12s
H    0     0                      96.0099278   82.24499  14.3%     -   12s
     0     0   82.24499    0 1568   96.00993   82.24499  14.3%     -   12s
     0     0   82.24499    0 1571   96.00993   82.24499  14.3%     -   12s
     0     0   82.24499    0 1580   96.00993   82.24499  14.3%     -   12s
     0     0   82.24499    0 1595   96.00993   82.24499  14.3%     -   12s
     0     0   82.24499    0 1573   96.00993   82.24499  14.3%     -   13s
     0     0   82.24499    0 1598   96.00993   82.24499  14.3%     -   13s
     0     0   82.24499    0 1619   96.00993   82.24499  14.3%     -   13s
     0     0   82.24499    0 1575   96.00993   82.24499  14.3%     -   14s
H    0     0                      96.0099249   82.24499  14.3%     -   14s
     0     0   82.24499    0 1581   96.00992   82.24499  14.3%     -   14s
     0     0   82.24499    0 1576   96.00992   82.24499  14.3%     -   14s
     0     0   82.24499    0 1583   96.00992   82.24499  14.3%     -   14s
     0     0   82.24499    0 1585   96.00992   82.24499  14.3%     -   15s
     0     0   82.24499    0 1600   96.00992   82.24499  14.3%     -   15s
     0     0   82.24499    0 1594   96.00992   82.24499  14.3%     -   15s
     0     0   82.24499    0 1603   96.00992   82.24499  14.3%     -   16s
     0     0   82.24499    0 1598   96.00992   82.24499  14.3%     -   16s
     0     0   82.24499    0 1602   96.00992   82.24499  14.3%     -   17s
     0     0   82.24499    0 1609   96.00992   82.24499  14.3%     -   17s
     0     0   82.29464    0 1597   96.00992   82.29464  14.3%     -   18s
     0     0   82.29464    0 1597   96.00992   82.29464  14.3%     -   18s
H    0     0                      94.0098475   82.29464  12.5%     -   19s
H    0     0                      94.0098427   82.29464  12.5%     -   20s
     0     2   82.29464    0 1597   94.00984   82.29464  12.5%     -   20s
    45    44 infeasible    6        94.00984   83.40023  11.3%  1349   25s
H   46    44                      92.0098368   83.40023  9.36%  1320   25s
H   47    44                      92.0098368   83.40023  9.36%  1299   25s
H   53    44                      92.0098358   83.40023  9.36%  1239   25s
   164   133   90.17136   13  992   92.00984   83.40023  9.36%   834   30s
   304   206   89.98658   12  859   92.00984   83.71249  9.02%   728   35s
   482   289   87.55684    7 1243   92.00984   84.49781  8.16%   681   42s
   571   332   89.60878   12  724   92.00984   84.49781  8.16%   669   45s
   762   405   85.93224    6  999   92.00984   84.53207  8.13%   659   50s
   867   449   88.85596    9  866   92.00984   84.53207  8.13%   684   55s
  1044   521     cutoff   17        92.00984   84.53207  8.13%   684   60s
  1245   590   87.36214   11 1037   92.00984   85.02050  7.60%   685   65s
  1417   661   91.04881   17  521   92.00984   85.86965  6.67%   685   71s
  1610   699   89.58263   17 1043   92.00984   85.86965  6.67%   673   75s
  1871   770   88.92034    9  610   92.00984   86.28157  6.23%   676   80s
  2121   876   90.03498   11  768   92.00984   86.34629  6.16%   677   86s
  2324   918   91.01024   14  340   92.00984   86.39954  6.10%   676   90s
  2524   938 infeasible   13        92.00984   86.59846  5.88%   687   96s
  2592   976   91.74838   14 1210   92.00984   86.68477  5.79%   696  105s
  2864  1060   89.96113   11 1130   92.00984   86.80184  5.66%   686  110s
  3103  1105   90.41666   17  871   92.00984   86.92546  5.53%   690  116s
  3408  1180     cutoff   11        92.00984   87.06395  5.38%   692  122s
  3576  1240     cutoff   28        92.00984   87.13033  5.30%   690  125s
  3812  1241   90.52703   30 1597   92.00984   87.13033  5.30%   680  130s
  3821  1247   89.84929   17 1651   92.00984   87.13033  5.30%   678  135s
  3826  1253   87.13033   14 1438   92.00984   87.13033  5.30%   683  140s
  3891  1299   91.00711   20  805   92.00984   87.13033  5.30%   696  145s
  3970  1311     cutoff   21        92.00984   87.13033  5.30%   709  150s
  4119  1301   87.66400   24  743   92.00984   87.13033  5.30%   710  155s
  4187  1290   90.01013   28  292   92.00984   87.13033  5.30%   717  160s
  4347  1287     cutoff   39        92.00984   87.13033  5.30%   718  165s
  4508  1263   87.13033   21 1212   92.00984   87.13033  5.30%   731  170s
  4587  1247   87.13033   23  865   92.00984   87.13033  5.30%   735  175s
  4708  1224   88.08834   21 1161   92.00984   87.13033  5.30%   742  186s
  4846  1183 infeasible   22        92.00984   87.13033  5.30%   744  190s
  4921  1166     cutoff   25        92.00984   87.13033  5.30%   742  207s
  4969  1149     cutoff   27        92.00984   87.13033  5.30%   741  212s
  5136  1122   90.44141   29  583   92.00984   87.13033  5.30%   735  216s
  5253  1094   90.01017   26  306   92.00984   87.13033  5.30%   731  220s
  5516  1045   89.94515   27  670   92.00984   87.58417  4.81%   727  225s
  5947   927   90.47516   30  379   92.00984   88.01001  4.35%   711  231s
  6408   770   91.85597   27  656   92.00984   88.35925  3.97%   698  245s
  6675   664   89.02179   28  270   92.00984   88.85888  3.42%   690  250s
* 6680   599              32      91.0099968   88.85888  2.36%   689  250s
  7381   234   90.27713   23  889   91.01000   89.47183  1.69%   663  256s
  7823    33     cutoff   32        91.01000   90.00994  1.10%   655  270s

Cutting planes:
  Learned: 42
  Cover: 79
  Implied bound: 4
  Clique: 9
  MIR: 43
  StrongCG: 4
  Flow cover: 18
  GUB cover: 3
  Inf proof: 3
  Zero half: 8
  Mod-K: 1
  RLT: 19

Explored 8100 nodes (5234920 simplex iterations) in 271.03 seconds (600.45 work units)
Thread count was 10 (of 64 available processors)

Solution count 10: 91.01 92.0098 92.0098 ... 131.01

Optimal solution found (tolerance 1.00e-04)
Best objective 9.100999683005e+01, best bound 9.100999683005e+01, gap 0.0000%

User-callback calls 28000, time in user-callback 0.02 sec
